38675
0 0 0 0 1 0 0 0 0 0 1 1 0 0 0 1 0 0 1 1 0 0 0 0 0 1 0 0 0 1 
18 19 15 18 15 25 15 11 18 11 4 19 10 10 19 18 10 10 18 11 18 15 10 18 10 18 18 19 29 15 19 4 4 15 11 4 4 29 18 15 18 19 19 29 29 4 10 15 19 4 11 15 18 15 4 25 25 29 18 25 29 19 25 10 4 11 10 19 19 25 18 25 4 4 19 10 19 10 29 15 10 19 4 25 29 10 19 19 18 25 11 4 25 25 15 10 11 11 11 19 19 15 25 25 4 11 29 18 18 10 19 29 18 11 11 29 11 25 11 29 4 11 11 4 4 15 15 11 4 19 11 15 25 4 10 4 10 10 19 19 25 18 11 25 25 15 18 15 18 25 18 19 10 11 4 11 15 15 10 10 10 11 10 25 10 18 15 29 4 15 10 4 19 19 29 15 11 19 29 19 15 15 15 19 11 29 11 10 11 15 15 15 4 4 25 25 25 15 10 19 
